
Gurobi 10.0.1 (linux64) logging started Tue Sep 12 17:30:04 2023

Set parameter LogFile to value "./log/chr12c/chr12c.log"
Set parameter TimeLimit to value 180
Gurobi Optimizer version 10.0.1 build v10.0.1rc0 (linux64)

CPU model: 12th Gen Intel(R) Core(TM) i5-12600KF, instruction set [SSE2|AVX|AVX2]
Thread count: 8 physical cores, 16 logical processors, using up to 16 threads

Optimize a model with 24 rows, 144 columns and 288 nonzeros
Model fingerprint: 0xcc992bfe
Model has 1430 quadratic objective terms
Variable types: 0 continuous, 144 integer (144 binary)
Coefficient statistics:
  Matrix range     [1e+00, 1e+00]
  Objective range  [0e+00, 0e+00]
  QObjective range [2e+01, 4e+04]
  Bounds range     [1e+00, 1e+00]
  RHS range        [1e+00, 1e+00]
Found heuristic solution: objective 43938.000000
Presolve time: 0.01s
Presolved: 1454 rows, 1574 columns, 4578 nonzeros
Variable types: 0 continuous, 1574 integer (1574 binary)

Root relaxation: objective 0.000000e+00, 92 iterations, 0.00 seconds (0.00 work units)

    Nodes    |    Current Node    |     Objective Bounds      |     Work
 Expl Unexpl |  Obj  Depth IntInf | Incumbent    BestBd   Gap | It/Node Time

     0     0    0.00000    0   24 43938.0000    0.00000   100%     -    0s
H    0     0                    34370.000000    0.00000   100%     -    0s
H    0     0                    26884.000000    0.00000   100%     -    0s
     0     0    0.00000    0   26 26884.0000    0.00000   100%     -    0s
H    0     0                    24708.000000    0.00000   100%     -    0s
     0     0    0.00000    0   35 24708.0000    0.00000   100%     -    0s
     0     0    0.00000    0   28 24708.0000    0.00000   100%     -    0s
     0     0    0.00000    0   34 24708.0000    0.00000   100%     -    0s
     0     0    0.00000    0   34 24708.0000    0.00000   100%     -    0s
     0     2  112.00000    0   34 24708.0000  112.00000   100%     -    0s
H   60    64                    22172.000000  112.00000  99.5%  63.9    0s
H   78    80                    18452.000000  112.00000  99.4%  58.8    0s
H   79    95                    18334.000000  112.00000  99.4%  58.1    0s
H  141   137                    14196.000000  112.00000  99.2%  42.9    0s
H  204   179                    13932.000000  112.00000  99.2%  35.9    0s
H  250   223                    12852.000000  112.00000  99.1%  32.9    0s
H  265   223                    11806.000000  112.00000  99.1%  31.8    0s
H 1093   698                    11414.000000 1740.00000  84.8%  21.9    0s
* 6999  1412              36    11186.000000 6297.00000  43.7%  24.5    1s
*11003   635              30    11156.000000 8600.50000  22.9%  22.9    2s

Cutting planes:
  Cover: 1
  RLT: 93

Explored 12592 nodes (276557 simplex iterations) in 2.17 seconds (3.50 work units)
Thread count was 16 (of 16 available processors)

Solution count 10: 11156 11186 11414 ... 22172

Optimal solution found (tolerance 1.00e-04)
Best objective 1.115600000000e+04, best bound 1.115600000000e+04, gap 0.0000%
